Water Network: 11
Results smooth approximation 1 of Hazen--Williams headloss constraint

*******************************************************************************
wdnmodel.mod

-------------------------------- Solving with gurobi --------------------------
Gurobi 12.0.3: Set parameter LogToConsole to value 1
  tech:outlev = 1
  tech:outlev_mp = 1
Set parameter Presolve to value 1
  pre:solve = 1
Set parameter Aggregate to value 1
  pre:aggregate = 1
Set parameter TimeLimit to value 600
  lim:time = 600
Set parameter NumericFocus to value 1
  alg:numericfocus = 1
Set parameter OBBT to value 0
  mip:obbt = 0
Set parameter ScaleFlag to value 1
  pre:scale = 1
Set parameter Method to value 2
  alg:method = 2
Set parameter NodeMethod to value 1
  mip:nodemethod = 1
Set parameter NonConvex to value 2
  qp:nonconvex = 2
Set parameter MIPFocus to value 1
  mip:focus = 1
Set parameter NLPHeur to value 1
  alg:nlpheur = 1
Set parameter VarBranch to value 0
  mip:varbranch = 0
Set parameter MIPGapAbs to value 1e-05
  mip:gapabs = 1.0000000000000001e-05
Set parameter MIPGap to value 1e-06
  mip:gap = 9.9999999999999995e-07
Set parameter FeasibilityTol to value 1e-05
  alg:feastol = 1.0000000000000001e-05
  cvt:pre:feastol = 1.0000000000000001e-05
  cvt:pre:feastolrel = 9.9999999999999995e-07
  sol:chk:feastol = 1.0000000000000001e-05
  sol:chk:feastolrel = 9.9999999999999995e-07

AMPL MP initial flat model has 534 variables (0 integer, 0 binary);
Objectives: 1 linear; 
Constraints:  58 linear; 68 quadratic;
Algebraic expressions:  34 abs; 34 powconstexp;

AMPL MP final model has 670 variables (0 integer, 0 binary);
Objectives: 1 linear; 
Constraints:  92 linear; 68 quadratic;
Algebraic expressions:  34 abs; 34 powconstexp;


Set parameter InfUnbdInfo to value 1
Gurobi Optimizer version 12.0.3 build v12.0.3rc0 (linux64 - "Debian GNU/Linux 12 (bookworm)")

CPU model: INTEL(R) XEON(R) GOLD 6530, instruction set [SSE2|AVX|AVX2|AVX512]
Thread count: 32 physical cores, 64 logical processors, using up to 32 threads

Non-default parameters:
TimeLimit  600
FeasibilityTol  1e-05
MIPGap  1e-06
MIPGapAbs  1e-05
Method  2
ScaleFlag  1
MIPFocus  1
NodeMethod  1
OBBT  0
VarBranch  0
InfUnbdInfo  1
NonConvex  2
NumericFocus  1
Presolve  1

Optimize a model with 92 rows, 670 columns and 642 nonzeros
Model fingerprint: 0x859008f5
Model has 34 simple general constraints
  34 ABS
Model has 34 general nonlinear constraints (1428 nonlinear terms)
Variable types: 670 continuous, 0 integer (0 binary)
Coefficient statistics:
  Matrix range     [1e+00, 1e+00]
  Objective range  [1e+03, 2e+04]
  Bounds range     [3e+00, 5e+05]
  RHS range        [3e-02, 3e+03]
Presolve model has 34 nlconstr
Added 986 variables to disaggregate expressions.
Presolve added 134 rows and 32 columns
Presolve time: 0.03s
Presolved: 2946 rows, 1723 columns, 6928 nonzeros
Presolved model has 510 bilinear constraint(s)
Presolved model has 34 nonlinear constraint(s)

Solving non-convex MINLP

Variable types: 1689 continuous, 34 integer (34 binary)
Root barrier log...

Ordering time: 0.00s

Barrier statistics:
 AA' NZ     : 2.522e+04
 Factor NZ  : 3.178e+04 (roughly 2 MB of memory)
 Factor Ops : 6.180e+05 (less than 1 second per iteration)
 Threads    : 1

                  Objective                Residual
Iter       Primal          Dual         Primal    Dual     Compl     Time
   0   6.73700581e+10 -4.63727831e+10  2.60e+05 0.00e+00  6.22e+07     2s
   1   5.13322045e+09 -8.29321583e+09  2.83e+04 7.28e-12  7.00e+06     2s
   2   8.06505679e+08 -1.42391489e+09  3.95e+03 4.55e-12  1.02e+06     2s
   3   1.71848635e+08 -3.16800449e+08  4.64e+02 3.64e-12  1.61e+05     2s
   4   6.23939085e+07 -1.29299696e+07  1.48e+01 3.64e-12  1.76e+04     2s
   5   4.95982977e+07  1.86554191e+07  6.07e+00 5.00e-12  7.08e+03     2s
   6   4.43563071e+07  2.97854996e+07  3.43e+00 1.38e-11  3.33e+03     3s
   7   3.91817817e+07  3.36638274e+07  8.07e-01 1.17e-11  1.23e+03     3s
   8   3.82143424e+07  3.62350138e+07  3.48e-01 1.17e-11  4.43e+02     3s
   9   3.77632792e+07  3.72248006e+07  1.40e-01 7.28e-12  1.22e+02     3s
  10   3.74675350e+07  3.74265842e+07  2.24e-03 7.28e-12  9.00e+00     3s
  11   3.74588483e+07  3.74583776e+07  1.02e-04 7.28e-12  1.05e-01     3s
  12   3.74584505e+07  3.74584209e+07  6.14e-06 7.28e-12  6.60e-03     3s
  13   3.74584250e+07  3.74584250e+07  4.04e-07 7.28e-12  1.10e-06     3s
  14   3.74584250e+07  3.74584250e+07  8.77e-11 7.28e-12  1.10e-09     3s

Barrier solved model in 14 iterations and 2.52 seconds (0.07 work units)
Optimal objective 3.74584250e+07


Root relaxation: objective 3.745842e+07, 207 iterations, 0.04 seconds (0.02 work units)

    Nodes    |    Current Node    |     Objective Bounds      |     Work
 Expl Unexpl |  Obj  Depth IntInf | Incumbent    BestBd   Gap | It/Node Time

     0     0 3.7458e+07    0   66          - 3.7458e+07      -     -    2s
     0     0 3.7458e+07    0   57          - 3.7458e+07      -     -    2s
     0     0 3.7458e+07    0   56          - 3.7458e+07      -     -    2s
     0     0 3.7458e+07    0   48          - 3.7458e+07      -     -    2s
     0     0 3.7458e+07    0   49          - 3.7458e+07      -     -    3s
     0     0 3.7458e+07    0   49          - 3.7458e+07      -     -    3s
     0     0 3.7458e+07    0   49          - 3.7458e+07      -     -    3s
  NLP heuristic elapsed time = 5.05s
     0     2 3.7458e+07    0   49          - 3.7458e+07      -     -   17s
  1260   813 4.7410e+07   28   58          - 3.7557e+07      -  42.8   20s
  4095  2360 5.4551e+07   37   17          - 3.7583e+07      -  52.7   26s
  4100  2363 8.2016e+07   46    0          - 3.7583e+07      -  52.6   46s
  4101  2367 3.7583e+07   11   78          - 3.7583e+07      -  52.9   50s
  6001  2765 infeasible   23               - 3.7583e+07      -  57.3   61s
  7915  3107 5.2868e+07   44   65          - 3.7583e+07      -  57.6   65s
 11639  4083 4.8994e+07   22   65          - 3.8129e+07      -  53.8   70s
 15777  6298 5.5622e+07   29   68          - 3.8995e+07      -  52.2   75s
 20086  8394 4.5230e+07   28   61          - 3.9412e+07      -  51.2   80s
 23261  9487 4.5942e+07   29   80          - 3.9822e+07      -  50.0   86s
 26493 10661 4.3520e+07   30   85          - 4.0370e+07      -  50.4   90s
 30329 12394 5.0966e+07   40   73          - 4.1168e+07      -  51.3   95s
 35406 14491 8.4889e+07   36   62          - 4.2249e+07      -  51.3  100s
 39716 16555 8.3558e+07   37   80          - 4.2288e+07      -  51.2  105s
 42889 17954 7.3826e+07   45   87          - 4.2493e+07      -  51.3  110s
 48350 20154 4.5701e+07   32   61          - 4.2724e+07      -  51.0  115s
 52269 21485 4.3362e+07   29   64          - 4.2983e+07      -  51.0  120s
 56335 23304 infeasible   50               - 4.3222e+07      -  51.0  125s
 60952 25526 6.0088e+07   45   86          - 4.3335e+07      -  50.7  131s
 65946 27338 9.6199e+07   35   68          - 4.3621e+07      -  50.4  137s
 67503 28649 9.6201e+07   54   66          - 4.3637e+07      -  50.3  141s
 72851 31047 infeasible  130               - 4.3788e+07      -  49.9  147s
 75518 32068 infeasible  150               - 4.3792e+07      -  50.2  150s
 81187 34398 6.5810e+07   43   70          - 4.4222e+07      -  50.6  157s
 84167 35151 4.5055e+07   28   74          - 4.4369e+07      -  50.7  161s
 89015 37530 5.0761e+07   31   68          - 4.4420e+07      -  51.2  168s
 91961 38745 6.4382e+07   42   62          - 4.4514e+07      -  51.5  171s
 94704 40024 1.1107e+08   41   67          - 4.4516e+07      -  52.0  175s
H100176 41247                    2.457824e+08 4.4606e+07  81.9%  52.2  179s
 100734 41250 4.5376e+07   31   70 2.4578e+08 4.4742e+07  81.8%  52.2  184s
H100736 41228                    2.332124e+08 4.4742e+07  80.8%  52.2  184s
H100781 41079                    1.996787e+08 4.4742e+07  77.6%  52.2  189s
 100830 42059 4.8843e+07   33   67 1.9968e+08 4.4742e+07  77.6%  52.3  193s
 103540 42287 5.8581e+07   34   55 1.9968e+08 4.4851e+07  77.5%  52.3  198s
H103963 42287                    1.996787e+08 4.4851e+07  77.5%  52.3  198s
 104090 42781 5.8588e+07   35   55 1.9968e+08 4.4851e+07  77.5%  52.4  202s
H105503 42781                    1.996787e+08 4.4851e+07  77.5%  52.3  203s
 105580 43285 infeasible   45      1.9968e+08 4.4851e+07  77.5%  52.3  208s
H107239 43285                    1.996787e+08 4.4918e+07  77.5%  52.2  208s
 107244 44069 4.9513e+07   41   71 1.9968e+08 4.4918e+07  77.5%  52.2  213s
 109408 44296 6.3587e+07   34   66 1.9968e+08 4.5038e+07  77.4%  52.3  217s
 110129 44371 1.4814e+08   54   82 1.9968e+08 4.5038e+07  77.4%  52.3  221s
 110376 44440 infeasible   37      1.9968e+08 4.5038e+07  77.4%  52.3  226s
 110543 44591 infeasible   38      1.9968e+08 4.5038e+07  77.4%  52.2  231s
 111030 44826 5.2421e+07   39   73 1.9968e+08 4.5038e+07  77.4%  52.2  236s
 112019 45474 5.2818e+07   40   72 1.9968e+08 4.5038e+07  77.4%  52.1  242s
H112100 45437                    1.948088e+08 4.5038e+07  76.9%  52.1  242s
 113871 45652 infeasible   46      1.9481e+08 4.5041e+07  76.9%  52.0  249s
H113983 45651                    1.942828e+08 4.5041e+07  76.8%  52.0  249s
 114531 46520 1.2857e+08   44   69 1.9428e+08 4.5041e+07  76.8%  52.0  255s
H115594 46520                    1.942828e+08 4.5041e+07  76.8%  52.0  255s
H115893 46520                    1.939589e+08 4.5041e+07  76.8%  52.0  255s
H117232 46752                    1.871148e+08 4.5195e+07  75.8%  52.1  260s
 118557 47469 5.3313e+07   49   74 1.8711e+08 4.5198e+07  75.8%  52.0  268s
 120459 47827 4.5895e+07   36   62 1.8711e+08 4.5206e+07  75.8%  52.0  274s
 121695 47902 4.5895e+07   37   60 1.8711e+08 4.5324e+07  75.8%  52.0  279s
 121964 48062 4.5929e+07   38   61 1.8711e+08 4.5421e+07  75.7%  52.0  288s
 122318 48334 4.6209e+07   39   56 1.8711e+08 4.5422e+07  75.7%  51.9  295s
 123224 49265 infeasible   40      1.8711e+08 4.5422e+07  75.7%  51.9  302s
H124158 49265                    1.871148e+08 4.5445e+07  75.7%  51.9  302s
 125647 50036 5.5712e+07   33   82 1.8711e+08 4.5445e+07  75.7%  52.0  310s
H126397 50036                    1.871148e+08 4.5452e+07  75.7%  51.9  310s
H126666 50032                    1.868755e+08 4.5452e+07  75.7%  51.9  310s
 127908 51265 6.9576e+07   45   83 1.8688e+08 4.5452e+07  75.7%  51.9  316s
H128001 51265                    1.868679e+08 4.5452e+07  75.7%  51.9  316s
H128281 51264                    1.867061e+08 4.5452e+07  75.7%  51.9  316s
H130631 51263                    1.866116e+08 4.5548e+07  75.6%  51.8  316s
 131539 52405 infeasible   85      1.8661e+08 4.5568e+07  75.6%  51.8  323s
H131601 52405                    1.866116e+08 4.5568e+07  75.6%  51.8  323s
 134321 53596 infeasible   52      1.8661e+08 4.5683e+07  75.5%  51.8  330s
H134323 53596                    1.866116e+08 4.5683e+07  75.5%  51.8  330s
 137828 54708 infeasible   50      1.8661e+08 4.5725e+07  75.5%  51.7  338s
H137831 54708                    1.866116e+08 4.5725e+07  75.5%  51.7  338s
H139069 54708                    1.866116e+08 4.5725e+07  75.5%  51.6  338s
 140942 55563 infeasible   44      1.8661e+08 4.5762e+07  75.5%  51.6  345s
 143565 55737 1.1965e+08   46   62 1.8661e+08 4.5780e+07  75.5%  51.6  352s
 144047 55814 infeasible   47      1.8661e+08 4.5806e+07  75.5%  51.6  358s
 144286 55882 1.2973e+08   48   59 1.8661e+08 4.5806e+07  75.5%  51.6  364s
 144440 56403 1.2973e+08   49   59 1.8661e+08 4.5828e+07  75.4%  51.6  371s
H144663 56403                    1.866116e+08 4.5828e+07  75.4%  51.6  371s
 145711 57674 1.0307e+08   44   69 1.8661e+08 4.5828e+07  75.4%  51.6  378s
 149340 57807 infeasible   44      1.8661e+08 4.5872e+07  75.4%  51.5  385s
 149739 57828 8.4647e+07   45   85 1.8661e+08 4.5924e+07  75.4%  51.5  392s
 149782 57947 infeasible   45      1.8661e+08 4.5924e+07  75.4%  51.5  399s
 150139 58439 8.9791e+07   47   85 1.8661e+08 4.5936e+07  75.4%  51.5  408s
 151591 58705 infeasible   63      1.8661e+08 4.5982e+07  75.4%  51.5  415s
H151593 58705                    1.866116e+08 4.5982e+07  75.4%  51.5  415s
 152289 59243 1.6684e+08   38   78 1.8661e+08 4.5985e+07  75.4%  51.5  422s
H153511 59243                    1.866116e+08 4.5985e+07  75.4%  51.4  423s
 154025 60303 infeasible   34      1.8661e+08 4.5985e+07  75.4%  51.4  430s
 157231 60426 infeasible   43      1.8661e+08 4.6031e+07  75.3%  51.3  438s
 157580 60475 6.9861e+07   43   94 1.8661e+08 4.6031e+07  75.3%  51.3  446s
 157743 60776 infeasible   44      1.8661e+08 4.6031e+07  75.3%  51.3  454s
 158730 61317 7.0315e+07   51   79 1.8661e+08 4.6031e+07  75.3%  51.3  463s
 160573 61589 7.0545e+07   52   80 1.8661e+08 4.6047e+07  75.3%  51.3  470s
 161525 61877 infeasible   53      1.8661e+08 4.6149e+07  75.3%  51.3  477s
 162459 62352 8.3654e+07   51   69 1.8661e+08 4.6150e+07  75.3%  51.3  484s
 163842 62551 8.3659e+07   52   69 1.8661e+08 4.6161e+07  75.3%  51.2  493s
 164569 62731 infeasible   53      1.8661e+08 4.6162e+07  75.3%  51.2  502s
 165213 63343 infeasible   44      1.8661e+08 4.6167e+07  75.3%  51.2  510s
H167039 63343                    1.866116e+08 4.6197e+07  75.2%  51.3  510s
 167179 63899 infeasible   45      1.8661e+08 4.6197e+07  75.2%  51.4  518s
 168947 63964 7.8434e+07   57   74 1.8661e+08 4.6197e+07  75.2%  51.3  528s
H169177 63964                    1.866116e+08 4.6255e+07  75.2%  51.4  528s
 169190 64519 7.8434e+07   58   74 1.8661e+08 4.6255e+07  75.2%  51.4  538s
H170288 64519                    1.866116e+08 4.6328e+07  75.2%  51.4  538s
 170731 65548 infeasible   45      1.8661e+08 4.6330e+07  75.2%  51.4  546s
 174414 65825 infeasible   57      1.8661e+08 4.6358e+07  75.2%  51.4  555s
H174423 65825                    1.866116e+08 4.6358e+07  75.2%  51.4  555s
 175249 66619 1.0633e+08   39   68 1.8661e+08 4.6398e+07  75.1%  51.5  565s
 178129 66848 1.0011e+08   45   72 1.8661e+08 4.6425e+07  75.1%  51.4  574s
 178654 67026 1.4800e+08   65   88 1.8661e+08 4.6425e+07  75.1%  51.4  582s
 179240 67659 1.2244e+08   67   81 1.8661e+08 4.6425e+07  75.1%  51.4  591s
 181073 67896 infeasible   66      1.8661e+08 4.6462e+07  75.1%  51.4  600s

Cutting planes:
  RLT: 20

Explored 181908 nodes (9361157 simplex iterations) in 600.10 seconds (86.49 work units)
Thread count was 32 (of 64 available processors)

Solution count 10: 1.86612e+08 1.86612e+08 1.86612e+08 ... 1.86612e+08

Time limit reached
Best objective 1.866116118312e+08, best bound 4.651082774519e+07, gap 75.0761%
Gurobi 12.0.3: time limit, feasible solution; objective 186611611.8
9.36116e+06 simplex iterations
29 barrier iterations
181908 branching nodes
absmipgap=1.40101e+08, relmipgap=0.750761
eps [*,*]
:        3            4             5             6             7         :=
1   1.44289e-05    .            .             .             .
3    .            8.3834e-06    .             .             .
4    .             .           7.78737e-06    .             .
5    .             .            .            8.92659e-06    .
6    .             .            .             .            5.80419e-06

:         8             9            10            11            12         :=
4     .            8.49594e-06    .             .             .
6     .             .            6.28016e-06    .             .
7    9.92381e-06    .             .             .             .
9     .             .            9.13118e-06    .             .
10    .             .             .            1.41757e-05    .
11    .             .             .             .            1.09506e-05

:        13            14            15           16            17         :=
2     .            1.74937e-05    .            .             .
8    6.90334e-06   8.79725e-06    .            .             .
9     .             .            7.9724e-06    .             .
12   5.23675e-06    .             .            .             .
13    .             .             .           7.15365e-06    .
14    .             .             .            .            9.42597e-06

:        18            19            20            21            22         :=
10    .            9.50401e-06    .             .             .
13    .             .            8.73455e-06    .             .
15   8.22231e-06    .             .             .             .
16    .             .             .            9.34974e-06    .
17    .             .             .            7.22489e-06   8.92659e-06
19    .             .            6.91926e-06    .             .
20    .             .             .            7.61409e-06    .

:        23            24            25            26         :=
18   8.79725e-06    .             .             .
19    .            7.9724e-06     .             .
20    .             .            9.50401e-06    .
21    .             .             .            5.96511e-06
22    .             .             .            3.98532e-06
23    .            6.91926e-06    .             .
24    .             .            5.74697e-06    .
25    .             .             .            6.48291e-06
;

*******************************************************************************

Constraints violation:


Sum of constraints violation: 5.857592954051916e-06
*******************************************************************************

*******************************************************************************

Absolute and relative violations between original and approximation constraint 2:

+-----------------+--------------+--------------------------+------------------------+----------------------+----------------------+
| Constraint ID   |   flow value |   Original Con Violation |   Approx Con Violation |   Absolute Violation |   Relative Violation |
+=================+==============+==========================+========================+======================+======================+
| 1,3             |   1.2576     |                -2.6e-07  |              -2.6e-07  |             -0       |             -0       |
+-----------------+--------------+--------------------------+------------------------+----------------------+----------------------+
| 2,14            |   1.8293     |                -0        |              -0        |             -0       |             -0       |
+-----------------+--------------+--------------------------+------------------------+----------------------+----------------------+
| 3,4             |   0.9509     |                 0        |              -0        |             -0       |             -0       |
+-----------------+--------------+--------------------------+------------------------+----------------------+----------------------+
| 4,5             |   0.153258   |                -0        |              -1e-08    |             -1e-08   |             -0       |
+-----------------+--------------+--------------------------+------------------------+----------------------+----------------------+
| 4,9             |   0.722642   |                 0        |              -0        |             -0       |             -0       |
+-----------------+--------------+--------------------------+------------------------+----------------------+----------------------+
| 5,6             |   0.0449579  |                 2.6e-07  |               2.2e-07  |             -4e-08   |             -2e-08   |
+-----------------+--------------+--------------------------+------------------------+----------------------+----------------------+
| 6,7             |  -0.00580481 |                -2.6e-07  |               4.1e-07  |              6.7e-07 |             -4.3e-07 |
+-----------------+--------------+--------------------------+------------------------+----------------------+----------------------+
| 6,10            |  -0.0192373  |                -2.6e-07  |              -1.8e-07  |              8e-08   |             -5e-08   |
+-----------------+--------------+--------------------------+------------------------+----------------------+----------------------+
| 7,8             |  -0.0575048  |                -0        |               5e-08    |              5e-08   |             -1e-08   |
+-----------------+--------------+--------------------------+------------------------+----------------------+----------------------+
| 8,13            |   0.0887625  |                 1e-08    |              -1e-08    |             -1e-08   |             -0       |
+-----------------+--------------+--------------------------+------------------------+----------------------+----------------------+
| 8,14            |  -0.249567   |                 2.6e-07  |               2.6e-07  |              0       |             -0       |
+-----------------+--------------+--------------------------+------------------------+----------------------+----------------------+
| 9,10            |   0.412805   |                 0        |              -0        |             -0       |             -0       |
+-----------------+--------------+--------------------------+------------------------+----------------------+----------------------+
| 9,15            |   0.168137   |                -0        |              -1e-08    |             -1e-08   |             -0       |
+-----------------+--------------+--------------------------+------------------------+----------------------+----------------------+
| 10,11           |   0.349231   |                 1e-07    |               1e-07    |             -0       |             -0       |
+-----------------+--------------+--------------------------+------------------------+----------------------+----------------------+
| 10,19           |  -0.147364   |                 3e-08    |               3e-08    |              0       |             -0       |
+-----------------+--------------+--------------------------+------------------------+----------------------+----------------------+
| 11,12           |   0.212531   |                -0        |              -0        |             -0       |             -0       |
+-----------------+--------------+--------------------------+------------------------+----------------------+----------------------+
| 12,13           |  -0.0141687  |                 1.13e-06 |               1.18e-06 |              5e-08   |             -6e-08   |
+-----------------+--------------+--------------------------+------------------------+----------------------+----------------------+
| 13,16           |  -0.0745426  |                -0        |               0        |              1e-08   |             -0       |
+-----------------+--------------+--------------------------+------------------------+----------------------+----------------------+
| 13,20           |  -0.0975637  |                 1.33e-06 |               1.34e-06 |              1e-08   |             -0       |
+-----------------+--------------+--------------------------+------------------------+----------------------+----------------------+
| 14,17           |   1.40303    |                -2.6e-07  |              -2.6e-07  |             -0       |             -0       |
+-----------------+--------------+--------------------------+------------------------+----------------------+----------------------+
| 15,18           |  -0.00686262 |                 0        |               6.8e-07  |              6.8e-07 |             -6.1e-07 |
+-----------------+--------------+--------------------------+------------------------+----------------------+----------------------+
| 16,21           |  -0.224543   |                 0        |               0        |              0       |             -0       |
+-----------------+--------------+--------------------------+------------------------+----------------------+----------------------+
| 17,21           |   1.11494    |                -0        |              -0        |             -0       |             -0       |
+-----------------+--------------+--------------------------+------------------------+----------------------+----------------------+
| 17,22           |   0.174796   |                -0        |              -0        |             -0       |             -0       |
+-----------------+--------------+--------------------------+------------------------+----------------------+----------------------+
| 18,23           |  -0.0635626  |                -0        |               0        |              0       |             -1e-08   |
+-----------------+--------------+--------------------------+------------------------+----------------------+----------------------+
| 19,20           |  -0.323366   |                 0        |               0        |              0       |             -0       |
+-----------------+--------------+--------------------------+------------------------+----------------------+----------------------+
| 19,24           |   0.0993021  |                -3e-08    |              -4e-08    |             -0       |             -0       |
+-----------------+--------------+--------------------------+------------------------+----------------------+----------------------+
| 20,21           |  -0.680394   |                 1e-08    |               1e-08    |              0       |             -0       |
+-----------------+--------------+--------------------------+------------------------+----------------------+----------------------+
| 20,25           |   0.0827642  |                 0        |              -1e-08    |             -1e-08   |             -1e-08   |
+-----------------+--------------+--------------------------+------------------------+----------------------+----------------------+
| 21,26           |   0          |                 0        |               0        |              0       |              0       |
+-----------------+--------------+--------------------------+------------------------+----------------------+----------------------+
| 22,26           |   0.0847964  |                -0        |              -0        |             -0       |             -0       |
+-----------------+--------------+--------------------------+------------------------+----------------------+----------------------+
| 23,24           |  -0.0968626  |                 2.9e-07  |               2.9e-07  |              0       |             -0       |
+-----------------+--------------+--------------------------+------------------------+----------------------+----------------------+
| 24,25           |  -0.0725605  |                 4e-08    |               4e-08    |              0       |             -0       |
+-----------------+--------------+--------------------------+------------------------+----------------------+----------------------+
| 25,26           |  -0.0480964  |                -4e-08    |              -2e-08    |              2e-08   |             -1e-08   |
+-----------------+--------------+--------------------------+------------------------+----------------------+----------------------+

Sum of violation of original headloss constraint: 4.578698372448287e-06
Sum of violation of approx headloss constraint: 5.417944510699435e-06

Con2 sum of absolute violation between original function and approximate function: 1.6602036522206376e-06
Con2 sum of relative violation between original function and approximate function: 1.219200532454436e-06
*******************************************************************************

Total cost using gurobi: 186611611.83122802
gurobi solve time: 600.43 seconds
*******************************************************************************

